networks/zoo_96_1807/zoo_96_1807-lower.txt
Number of groups: 47
Flow 3: {1 4 0} {4 52 0} 
Flow 40: {45 41 0} {41 42 0} {42 90 0} 
Flow 45: {48 46 0} {46 47 0} {47 95 0} 
Flow 54: {2 1 0} {1 5 0} {5 17 0} {17 65 0} 
Flow 93: {34 32 0} {32 31 0} {31 38 0} {38 35 0} {35 83 0} 
Flow 136: {4 1 0} {1 40 0} {40 88 0} 
Flow 151: {5 8 0} {8 56 0} 
Flow 206: {6 28 0} {28 76 0} 
Flow 241: {8 5 0} {5 27 0} {27 75 0} 
Flow 283: {9 28 0} {28 34 0} {34 82 0} 
Flow 299: {10 28 0} {28 9 0} {9 57 0} 
Flow 336: {11 12 0} {12 14 0} {14 17 0} {17 5 0} {5 28 0} {28 6 0} {6 54 0} 
Flow 378: {12 11 0} {11 59 0} 
Flow 455: {13 48 0} {48 96 0} 
Flow 490: {15 16 0} {16 17 0} {17 14 0} {14 62 0} 
Flow 560: {25 26 0} {26 13 0} {13 61 0} 
Flow 563: {17 18 0} {18 66 0} 
Flow 667: {20 24 0} {24 37 0} {37 85 0} 
Flow 734: {14 25 0} {25 73 0} 
Flow 738: {21 38 0} {38 31 0} {31 79 0} 
Flow 771: {22 26 0} {26 43 0} {43 23 0} {23 36 0} {36 24 0} {24 72 0} 
Flow 801: {26 25 0} {25 14 0} {14 12 0} {12 60 0} 
Flow 821: {23 42 0} {42 41 0} {41 89 0} 
Flow 844: {19 18 0} {18 17 0} {17 16 0} {16 64 0} 
Flow 948: {27 5 0} {5 1 0} {1 2 0} {2 50 0} 
Flow 994: {28 10 0} {10 58 0} 
Flow 1069: {29 43 0} {43 45 0} {45 93 0} 
Flow 1102: {36 84 0} 
Flow 1109: {30 43 0} {43 44 0} {44 92 0} 
Flow 1130: {18 19 0} {19 20 0} {20 68 0} 
Flow 1141: {31 32 0} {32 80 0} 
Flow 1163: {5 7 0} {7 55 0} 
Flow 1178: {16 15 0} {15 22 0} {22 70 0} 
Flow 1206: {33 32 0} {32 34 0} {34 28 0} {28 5 0} {5 53 0} 
Flow 1320: {35 38 0} {38 86 0} 
Flow 1380: {37 24 0} {24 36 0} {36 23 0} {23 43 0} {43 91 0} 
Flow 1401: {38 21 0} {21 69 0} 
Flow 1453: {39 47 0} {47 46 0} {46 45 0} {45 43 0} {43 30 0} {30 78 0} 
Flow 1487: {40 1 0} {1 3 0} {3 48 0} {48 13 0} {13 26 0} {26 74 0} 
Flow 1524: {42 23 0} {23 71 0} 
Flow 1545: {41 45 0} {45 46 0} {46 94 0} 
Flow 1548: {3 1 0} {1 49 0} 
Flow 1576: {43 29 0} {29 77 0} 
Flow 1606: {44 43 0} {43 26 0} {26 22 0} {22 15 0} {15 63 0} 
Flow 1696: {24 20 0} {20 19 0} {19 67 0} 
Flow 1725: {46 48 0} {48 3 0} {3 51 0} 
Flow 1754: {47 39 0} {39 87 0} 
Time taken running everything: 8 seconds
