networks/zoo_96_1807/zoo_96_1807-lower.sol
<?xml version = "1.0" encoding="UTF-8" standalone="yes"?>
<CPLEXSolution version="1.2">
 <header
   problemName="networks/zoo_96_1807/zoo_96_1807-lower.lp"
   solutionName="incumbent"
   solutionIndex="-1"
   objectiveValue="47"
   solutionTypeValue="3"
   solutionTypeString="primal"
   solutionStatusValue="101"
   solutionStatusString="integer optimal solution"
   solutionMethodString="mip"
   primalFeasible="1"
   dualFeasible="1"
   MIPNodes="0"
   MIPIterations="0"
   writeLevel="3"/>
 <quality
   epInt="1.0000000000000001e-05"
   epRHS="9.9999999999999995e-07"
   maxIntInfeas="0"
   maxPrimalInfeas="0"
   maxX="1"
   maxSlack="1"/>
 <variables>
  <variable name="Y(1,2)" index="1" value="1"/>
  <variable name="Y(2,3)" index="97" value="1"/>
  <variable name="Y(3,4)" index="193" value="1"/>
  <variable name="Y(4,5)" index="289" value="1"/>
  <variable name="Y(5,6)" index="385" value="1"/>
  <variable name="Y(6,7)" index="481" value="1"/>
  <variable name="Y(7,8)" index="577" value="1"/>
  <variable name="Y(8,9)" index="673" value="1"/>
  <variable name="Y(9,10)" index="769" value="1"/>
  <variable name="Y(10,11)" index="865" value="1"/>
  <variable name="Y(11,12)" index="961" value="1"/>
  <variable name="Y(12,13)" index="1057" value="1"/>
  <variable name="Y(13,14)" index="1153" value="1"/>
  <variable name="Y(14,15)" index="1249" value="1"/>
  <variable name="Y(15,16)" index="1345" value="1"/>
  <variable name="Y(16,17)" index="1441" value="1"/>
  <variable name="Y(17,18)" index="1537" value="1"/>
  <variable name="Y(18,19)" index="1633" value="1"/>
  <variable name="Y(19,20)" index="1729" value="1"/>
  <variable name="Y(20,21)" index="1825" value="1"/>
  <variable name="Y(21,22)" index="1921" value="1"/>
  <variable name="Y(22,23)" index="2017" value="1"/>
  <variable name="Y(23,24)" index="2113" value="1"/>
  <variable name="Y(24,25)" index="2209" value="1"/>
  <variable name="Y(25,26)" index="2305" value="1"/>
  <variable name="Y(26,27)" index="2401" value="1"/>
  <variable name="Y(27,28)" index="2497" value="1"/>
  <variable name="Y(28,29)" index="2593" value="1"/>
  <variable name="Y(29,30)" index="2689" value="1"/>
  <variable name="Y(30,31)" index="2785" value="1"/>
  <variable name="Y(31,32)" index="2881" value="1"/>
  <variable name="Y(32,34)" index="2978" value="1"/>
  <variable name="Y(33,35)" index="3074" value="1"/>
  <variable name="Y(34,36)" index="3170" value="1"/>
  <variable name="Y(35,37)" index="3266" value="1"/>
  <variable name="Y(36,38)" index="3362" value="1"/>
  <variable name="Y(37,39)" index="3458" value="1"/>
  <variable name="Y(38,40)" index="3554" value="1"/>
  <variable name="Y(39,41)" index="3650" value="1"/>
  <variable name="Y(40,42)" index="3746" value="1"/>
  <variable name="Y(41,43)" index="3842" value="1"/>
  <variable name="Y(42,44)" index="3938" value="1"/>
  <variable name="Y(43,45)" index="4034" value="1"/>
  <variable name="Y(44,46)" index="4130" value="1"/>
  <variable name="Y(45,47)" index="4226" value="1"/>
  <variable name="Y(46,48)" index="4322" value="1"/>
  <variable name="Y(145,1)" index="13680" value="1"/>
  <variable name="X(1,2,1)" index="171665" value="1"/>
  <variable name="X(1,3,2)" index="173473" value="1"/>
  <variable name="X(1,4,3)" index="175281" value="1"/>
  <variable name="X(1,5,4)" index="177089" value="1"/>
  <variable name="X(1,40,38)" index="178930" value="1"/>
  <variable name="X(1,49,145)" index="180844" value="1"/>
  <variable name="X(2,1,47)" index="182553" value="1"/>
  <variable name="X(2,50,1)" index="184314" value="1"/>
  <variable name="X(3,1,75)" index="186195" value="1"/>
  <variable name="X(3,48,12)" index="187939" value="1"/>
  <variable name="X(3,51,2)" index="189736" value="1"/>
  <variable name="X(4,1,103)" index="191644" value="1"/>
  <variable name="X(4,52,3)" index="193351" value="1"/>
  <variable name="X(5,1,145)" index="195300" value="1"/>
  <variable name="X(5,7,6)" index="196968" value="1"/>
  <variable name="X(5,8,7)" index="198776" value="1"/>
  <variable name="X(5,17,10)" index="200586" value="1"/>
  <variable name="X(5,27,26)" index="202409" value="1"/>
  <variable name="X(5,28,5)" index="204195" value="1"/>
  <variable name="X(5,53,4)" index="206001" value="1"/>
  <variable name="X(6,28,191)" index="207995" value="1"/>
  <variable name="X(6,54,5)" index="209616" value="1"/>
  <variable name="X(7,55,6)" index="211424" value="1"/>
  <variable name="X(8,5,219)" index="213444" value="1"/>
  <variable name="X(8,56,7)" index="215039" value="1"/>
  <variable name="X(9,28,261)" index="217100" value="1"/>
  <variable name="X(9,57,8)" index="218654" value="1"/>
  <variable name="X(10,28,295)" index="220748" value="1"/>
  <variable name="X(10,58,9)" index="222269" value="1"/>
  <variable name="X(11,12,333)" index="224400" value="1"/>
  <variable name="X(11,59,10)" index="225884" value="1"/>
  <variable name="X(12,11,10)" index="227691" value="1"/>
  <variable name="X(12,14,333)" index="229821" value="1"/>
  <variable name="X(12,60,11)" index="231306" value="1"/>
  <variable name="X(13,26,21)" index="233123" value="1"/>
  <variable name="X(13,48,361)" index="235270" value="1"/>
  <variable name="X(13,61,12)" index="236728" value="1"/>
  <variable name="X(14,12,10)" index="238533" value="1"/>
  <variable name="X(14,17,333)" index="240663" value="1"/>
  <variable name="X(14,25,24)" index="242161" value="1"/>
  <variable name="X(14,62,13)" index="243957" value="1"/>
  <variable name="X(15,16,479)" index="246230" value="1"/>
  <variable name="X(15,22,165)" index="247723" value="1"/>
  <variable name="X(15,63,14)" index="249379" value="1"/>
  <variable name="X(16,15,14)" index="251186" value="1"/>
  <variable name="X(16,17,479)" index="253458" value="1"/>
  <variable name="X(16,64,15)" index="254801" value="1"/>
  <variable name="X(17,5,333)" index="256926" value="1"/>
  <variable name="X(17,14,10)" index="258410" value="1"/>
  <variable name="X(17,16,14)" index="260221" value="1"/>
  <variable name="X(17,18,17)" index="262031" value="1"/>
  <variable name="X(17,65,16)" index="263837" value="1"/>
  <variable name="X(18,17,593)" index="266221" value="1"/>
  <variable name="X(18,19,18)" index="267453" value="1"/>
  <variable name="X(18,66,17)" index="269259" value="1"/>
  <variable name="X(19,18,636)" index="271685" value="1"/>
  <variable name="X(19,20,19)" index="272875" value="1"/>
  <variable name="X(19,67,18)" index="274681" value="1"/>
  <variable name="X(20,19,679)" index="277149" value="1"/>
  <variable name="X(20,24,23)" index="278300" value="1"/>
  <variable name="X(20,68,19)" index="280103" value="1"/>
  <variable name="X(21,38,717)" index="282608" value="1"/>
  <variable name="X(21,69,20)" index="283718" value="1"/>
  <variable name="X(22,15,424)" index="285929" value="1"/>
  <variable name="X(22,26,480)" index="287792" value="1"/>
  <variable name="X(22,70,21)" index="289140" value="1"/>
  <variable name="X(23,36,34)" index="290960" value="1"/>
  <variable name="X(23,42,363)" index="293096" value="1"/>
  <variable name="X(23,43,660)" index="295200" value="1"/>
  <variable name="X(23,71,22)" index="296369" value="1"/>
  <variable name="X(24,20,428)" index="298582" value="1"/>
  <variable name="X(24,36,178)" index="300139" value="1"/>
  <variable name="X(24,37,35)" index="301803" value="1"/>
  <variable name="X(24,72,23)" index="303598" value="1"/>
  <variable name="X(25,14,421)" index="305803" value="1"/>
  <variable name="X(25,26,166)" index="307355" value="1"/>
  <variable name="X(25,73,24)" index="309020" value="1"/>
  <variable name="X(26,13,339)" index="311142" value="1"/>
  <variable name="X(26,22,21)" index="312631" value="1"/>
  <variable name="X(26,25,421)" index="314838" value="1"/>
  <variable name="X(26,43,22)" index="316246" value="1"/>
  <variable name="X(26,74,25)" index="318056" value="1"/>
  <variable name="X(27,5,948)" index="320786" value="1"/>
  <variable name="X(27,75,26)" index="321671" value="1"/>
  <variable name="X(28,5,191)" index="323643" value="1"/>
  <variable name="X(28,6,5)" index="325264" value="1"/>
  <variable name="X(28,9,8)" index="327074" value="1"/>
  <variable name="X(28,10,9)" index="328882" value="1"/>
  <variable name="X(28,34,20)" index="330700" value="1"/>
  <variable name="X(28,76,27)" index="332514" value="1"/>
  <variable name="X(29,43,1031)" index="335325" value="1"/>
  <variable name="X(29,77,28)" index="336129" value="1"/>
  <variable name="X(30,43,1073)" index="338981" value="1"/>
  <variable name="X(30,78,29)" index="339744" value="1"/>
  <variable name="X(31,32,717)" index="342239" value="1"/>
  <variable name="X(31,38,20)" index="343349" value="1"/>
  <variable name="X(31,79,30)" index="345166" value="1"/>
  <variable name="X(32,31,20)" index="346963" value="1"/>
  <variable name="X(32,34,717)" index="349467" value="1"/>
  <variable name="X(32,80,31)" index="350588" value="1"/>
  <variable name="X(33,32,1203)" index="353567" value="1"/>
  <variable name="X(34,28,717)" index="354888" value="1"/>
  <variable name="X(34,32,20)" index="355998" value="1"/>
  <variable name="X(34,82,32)" index="357817" value="1"/>
  <variable name="X(35,38,1289)" index="360881" value="1"/>
  <variable name="X(35,83,33)" index="361432" value="1"/>
  <variable name="X(36,23,611)" index="363817" value="1"/>
  <variable name="X(36,24,428)" index="365441" value="1"/>
  <variable name="X(36,84,34)" index="366854" value="1"/>
  <variable name="X(37,24,1373)" index="370000" value="1"/>
  <variable name="X(37,85,35)" index="370469" value="1"/>
  <variable name="X(38,21,20)" index="372261" value="1"/>
  <variable name="X(38,31,717)" index="374765" value="1"/>
  <variable name="X(38,35,33)" index="375888" value="1"/>
  <variable name="X(38,86,36)" index="377698" value="1"/>
  <variable name="X(39,47,1427)" index="380896" value="1"/>
  <variable name="X(39,87,37)" index="381313" value="1"/>
  <variable name="X(40,1,1468)" index="384551" value="1"/>
  <variable name="X(40,88,38)" index="384928" value="1"/>
  <variable name="X(41,42,40)" index="386737" value="1"/>
  <variable name="X(41,45,1503)" index="390007" value="1"/>
  <variable name="X(41,89,39)" index="390350" value="1"/>
  <variable name="X(42,23,1508)" index="393626" value="1"/>
  <variable name="X(42,41,671)" index="394596" value="1"/>
  <variable name="X(42,90,40)" index="395772" value="1"/>
  <variable name="X(43,23,22)" index="397561" value="1"/>
  <variable name="X(43,26,687)" index="400033" value="1"/>
  <variable name="X(43,29,28)" index="401181" value="1"/>
  <variable name="X(43,30,29)" index="402989" value="1"/>
  <variable name="X(43,44,42)" index="404809" value="1"/>
  <variable name="X(43,45,362)" index="406936" value="1"/>
  <variable name="X(43,91,41)" index="408422" value="1"/>
  <variable name="X(44,43,1594)" index="411782" value="1"/>
  <variable name="X(44,92,42)" index="412037" value="1"/>
  <variable name="X(45,41,39)" index="413841" value="1"/>
  <variable name="X(45,43,1435)" index="417044" value="1"/>
  <variable name="X(45,46,708)" index="418124" value="1"/>
  <variable name="X(45,93,43)" index="419266" value="1"/>
  <variable name="X(46,45,39)" index="421069" value="1"/>
  <variable name="X(46,47,37)" index="422874" value="1"/>
  <variable name="X(46,48,1427)" index="426071" value="1"/>
  <variable name="X(46,94,44)" index="426495" value="1"/>
  <variable name="X(47,39,37)" index="428295" value="1"/>
  <variable name="X(47,46,1427)" index="431492" value="1"/>
  <variable name="X(47,95,45)" index="431917" value="1"/>
  <variable name="X(48,3,413)" index="434092" value="1"/>
  <variable name="X(48,13,12)" index="435498" value="1"/>
  <variable name="X(48,46,37)" index="437330" value="1"/>
  <variable name="X(48,96,46)" index="439146" value="1"/>
 </variables>
</CPLEXSolution>
